
  32    4
  10   10   10   10

   0   0   0   0   0   4 2 18 30 31 
   7  10  10  10  10   2 29 3 
   9  10  10  10  10   1 4 
   9  10  10  10  10   2 28 5 
   9  10  10  10  10   1 6 
   5  10  10  10  10   1 7 
   6  10  10  10  10   1 8 
   3  10  10  10  10   1 9 
  10  10  10  10  10   1 10 
   4  10  10  10  10   1 11 
   1  10  10  10  10   1 12 
   8  10  10  10  10   1 13 
   2  10  10  10  10   1 14 
   2  10  10  10  10   1 15 
   5  10  10  10  10   1 16 
   3  10  10  10  10   1 17 
   9  10  10  10  10   1 19 
  10  10  10  10  10   1 19 
   7  10  10  10  10   1 20 
   2  10  10  10  10   1 21 
   3  10  10  10  10   1 22 
   5  10  10  10  10   1 23 
   1  10  10  10  10   2 27 24 
   6  10  10  10  10   1 25 
   4  10  10  10  10   1 26 
   3  10  10  10  10   1 32
   1  10  10  10  10   1 32
   2  10  10  10  10   1 32
   7  10  10  10  10   1 32
   8  10  10  10  10   1 32
  10  10  10  10  10   1 32
   0   0   0   0   0   0 
